set Z;
 set Y;
 param A{r in Z, m in Y} default 0, binary;
 var Route{m in Y}, binary;
 minimize cost: sum{m in Y} Route[m];
 subject to covers{r in Z}: sum{m in Y} A[r,m]*Route[m]>=1;
 solve; 
 printf {m in Y:  Route[m] == 1} "%s ", m > "C:/Sites/first_app/Results.txt";
 data;
set Z:= Z209 Z210 Z211 Z212 Z213 Z214 Z215 Z216 Z217 Z218 Z219 Z220 Z221 Z222 Z223 Z224 Z225 Z226 Z227 Z228 Z229 Z230 Z231 Z232 Z233 Z234 Z235 Z236 Z237 Z238 Z239 Z240 Z241 Z242 Z243 Z244 Z245 Z246 Z247 Z248 Z249 Z250 Z251 Z252 Z253 Z254 Z255 Z256 Z257 Z258 Z259 Z260 Z261 Z262 Z263 Z264 Z265 Z266 Z267 Z268 Z269 ;
set Y:= Y76 Y77 Y78 Y79 Y80 Y81 Y82 Y83 Y84 Y85 Y86 Y87 Y88 Y89 Y90 Y91 Y92 Y93 Y94 Y95 Y96 Y97 Y98 Y99 Y100 Y101 Y102 Y103 Y104 Y105 Y106 Y107 ;
param A := 
[Z209,Y76] 1[Z209,Y77] 1[Z209,Y78] 1[Z209,Y79] 1[Z209,Y80] 1[Z209,Y81] 1[Z209,Y82] 1[Z209,Y83] 1[Z209,Y84] 1[Z209,Y85] 1[Z209,Y86] 1[Z209,Y87] 1[Z209,Y88] 1[Z209,Y89] 1[Z209,Y90] 1[Z209,Y91] 1[Z209,Y92] 1[Z209,Y93] 1[Z209,Y94] 1[Z210,Y76] 1[Z210,Y77] 1[Z210,Y78] 1[Z210,Y79] 1[Z210,Y80] 1[Z210,Y81] 1[Z210,Y82] 1[Z210,Y83] 1[Z210,Y84] 1[Z210,Y85] 1[Z210,Y86] 1[Z210,Y87] 1[Z210,Y88] 1[Z210,Y89] 1[Z210,Y90] 1[Z210,Y91] 1[Z210,Y92] 1[Z210,Y93] 1[Z210,Y94] 1[Z211,Y76] 1[Z211,Y77] 1[Z211,Y78] 1[Z211,Y79] 1[Z211,Y80] 1[Z211,Y81] 1[Z211,Y82] 1[Z211,Y83] 1[Z211,Y84] 1[Z211,Y85] 1[Z211,Y86] 1[Z211,Y87] 1[Z211,Y88] 1[Z211,Y89] 1[Z211,Y90] 1[Z211,Y91] 1[Z211,Y92] 1[Z211,Y93] 1[Z211,Y94] 1[Z212,Y76] 1[Z212,Y77] 1[Z212,Y78] 1[Z212,Y79] 1[Z212,Y80] 1[Z212,Y81] 1[Z212,Y82] 1[Z212,Y83] 1[Z212,Y84] 1[Z212,Y85] 1[Z212,Y86] 1[Z212,Y87] 1[Z212,Y88] 1[Z212,Y89] 1[Z212,Y90] 1[Z212,Y91] 1[Z212,Y92] 1[Z212,Y93] 1[Z212,Y94] 1[Z213,Y76] 1[Z213,Y77] 1[Z213,Y78] 1[Z213,Y79] 1[Z213,Y80] 1[Z213,Y81] 1[Z213,Y82] 1[Z213,Y83] 1[Z213,Y84] 1[Z213,Y85] 1[Z213,Y86] 1[Z213,Y87] 1[Z213,Y88] 1[Z213,Y89] 1[Z213,Y90] 1[Z213,Y91] 1[Z213,Y92] 1[Z213,Y93] 1[Z213,Y94] 1[Z214,Y76] 1[Z214,Y77] 1[Z214,Y78] 1[Z214,Y79] 1[Z214,Y80] 1[Z214,Y81] 1[Z214,Y82] 1[Z214,Y83] 1[Z214,Y84] 1[Z214,Y85] 1[Z214,Y86] 1[Z214,Y87] 1[Z214,Y88] 1[Z214,Y89] 1[Z214,Y90] 1[Z214,Y91] 1[Z214,Y92] 1[Z214,Y93] 1[Z214,Y94] 1[Z215,Y76] 1[Z215,Y77] 1[Z215,Y78] 1[Z215,Y79] 1[Z215,Y80] 1[Z215,Y81] 1[Z215,Y82] 1[Z215,Y83] 1[Z215,Y84] 1[Z215,Y85] 1[Z215,Y86] 1[Z215,Y87] 1[Z215,Y88] 1[Z215,Y89] 1[Z215,Y90] 1[Z215,Y91] 1[Z215,Y92] 1[Z215,Y93] 1[Z215,Y94] 1[Z216,Y76] 1[Z216,Y77] 1[Z216,Y78] 1[Z216,Y79] 1[Z216,Y80] 1[Z216,Y81] 1[Z216,Y82] 1[Z216,Y83] 1[Z216,Y84] 1[Z216,Y85] 1[Z216,Y86] 1[Z216,Y87] 1[Z216,Y88] 1[Z216,Y89] 1[Z216,Y90] 1[Z216,Y91] 1[Z216,Y92] 1[Z216,Y93] 1[Z216,Y94] 1[Z217,Y76] 1[Z217,Y77] 1[Z217,Y78] 1[Z217,Y79] 1[Z217,Y80] 1[Z217,Y81] 1[Z217,Y82] 1[Z217,Y83] 1[Z217,Y84] 1[Z217,Y85] 1[Z217,Y86] 1[Z217,Y87] 1[Z217,Y88] 1[Z217,Y89] 1[Z217,Y90] 1[Z217,Y91] 1[Z217,Y92] 1[Z217,Y93] 1[Z217,Y94] 1[Z218,Y76] 1[Z218,Y77] 1[Z218,Y78] 1[Z218,Y79] 1[Z218,Y80] 1[Z218,Y81] 1[Z218,Y82] 1[Z218,Y83] 1[Z218,Y84] 1[Z218,Y85] 1[Z218,Y86] 1[Z218,Y87] 1[Z218,Y88] 1[Z218,Y89] 1[Z218,Y90] 1[Z218,Y91] 1[Z218,Y92] 1[Z218,Y93] 1[Z218,Y94] 1[Z219,Y76] 1[Z219,Y77] 1[Z219,Y78] 1[Z219,Y79] 1[Z219,Y80] 1[Z219,Y81] 1[Z219,Y82] 1[Z219,Y83] 1[Z219,Y84] 1[Z219,Y85] 1[Z219,Y86] 1[Z219,Y87] 1[Z219,Y88] 1[Z219,Y89] 1[Z219,Y90] 1[Z219,Y91] 1[Z219,Y92] 1[Z219,Y93] 1[Z219,Y94] 1[Z220,Y76] 1[Z220,Y77] 1[Z220,Y78] 1[Z220,Y79] 1[Z220,Y80] 1[Z220,Y81] 1[Z220,Y82] 1[Z220,Y83] 1[Z220,Y84] 1[Z220,Y85] 1[Z220,Y86] 1[Z220,Y87] 1[Z220,Y88] 1[Z220,Y89] 1[Z220,Y90] 1[Z220,Y91] 1[Z220,Y92] 1[Z220,Y93] 1[Z220,Y94] 1[Z221,Y76] 1[Z221,Y77] 1[Z221,Y78] 1[Z221,Y79] 1[Z221,Y80] 1[Z221,Y81] 1[Z221,Y82] 1[Z221,Y83] 1[Z221,Y84] 1[Z221,Y85] 1[Z221,Y86] 1[Z221,Y87] 1[Z221,Y88] 1[Z221,Y89] 1[Z221,Y90] 1[Z221,Y91] 1[Z221,Y92] 1[Z221,Y93] 1[Z221,Y94] 1[Z222,Y76] 1[Z222,Y77] 1[Z222,Y78] 1[Z222,Y79] 1[Z222,Y80] 1[Z222,Y81] 1[Z222,Y82] 1[Z222,Y83] 1[Z222,Y84] 1[Z222,Y85] 1[Z222,Y86] 1[Z222,Y87] 1[Z222,Y88] 1[Z222,Y89] 1[Z222,Y90] 1[Z222,Y91] 1[Z222,Y92] 1[Z222,Y93] 1[Z222,Y94] 1[Z223,Y76] 1[Z223,Y77] 1[Z223,Y78] 1[Z223,Y79] 1[Z223,Y80] 1[Z223,Y81] 1[Z223,Y82] 1[Z223,Y83] 1[Z223,Y84] 1[Z223,Y85] 1[Z223,Y86] 1[Z223,Y87] 1[Z223,Y88] 1[Z223,Y89] 1[Z223,Y90] 1[Z223,Y91] 1[Z223,Y92] 1[Z223,Y93] 1[Z223,Y94] 1[Z224,Y76] 1[Z224,Y77] 1[Z224,Y78] 1[Z224,Y79] 1[Z224,Y80] 1[Z224,Y81] 1[Z224,Y82] 1[Z224,Y83] 1[Z224,Y84] 1[Z224,Y85] 1[Z224,Y86] 1[Z224,Y87] 1[Z224,Y88] 1[Z224,Y89] 1[Z224,Y90] 1[Z224,Y91] 1[Z224,Y92] 1[Z224,Y93] 1[Z224,Y94] 1[Z225,Y76] 1[Z225,Y77] 1[Z225,Y78] 1[Z225,Y79] 1[Z225,Y80] 1[Z225,Y81] 1[Z225,Y82] 1[Z225,Y83] 1[Z225,Y84] 1[Z225,Y85] 1[Z225,Y86] 1[Z225,Y87] 1[Z225,Y88] 1[Z225,Y89] 1[Z225,Y90] 1[Z225,Y91] 1[Z225,Y92] 1[Z225,Y93] 1[Z225,Y94] 1[Z226,Y76] 1[Z226,Y77] 1[Z226,Y78] 1[Z226,Y79] 1[Z226,Y80] 1[Z226,Y81] 1[Z226,Y82] 1[Z226,Y83] 1[Z226,Y84] 1[Z226,Y85] 1[Z226,Y86] 1[Z226,Y87] 1[Z226,Y88] 1[Z226,Y89] 1[Z226,Y90] 1[Z226,Y91] 1[Z226,Y92] 1[Z226,Y93] 1[Z226,Y94] 1[Z227,Y76] 1[Z227,Y77] 1[Z227,Y78] 1[Z227,Y79] 1[Z227,Y80] 1[Z227,Y81] 1[Z227,Y82] 1[Z227,Y83] 1[Z227,Y84] 1[Z227,Y85] 1[Z227,Y86] 1[Z227,Y87] 1[Z227,Y88] 1[Z227,Y89] 1[Z227,Y90] 1[Z227,Y91] 1[Z227,Y92] 1[Z227,Y93] 1[Z227,Y94] 1[Z228,Y76] 1[Z228,Y77] 1[Z228,Y78] 1[Z228,Y79] 1[Z228,Y80] 1[Z228,Y81] 1[Z228,Y82] 1[Z228,Y83] 1[Z228,Y84] 1[Z228,Y85] 1[Z228,Y86] 1[Z228,Y87] 1[Z228,Y88] 1[Z228,Y89] 1[Z228,Y90] 1[Z228,Y91] 1[Z228,Y92] 1[Z228,Y93] 1[Z228,Y94] 1[Z229,Y76] 1[Z229,Y77] 1[Z229,Y78] 1[Z229,Y79] 1[Z229,Y80] 1[Z229,Y81] 1[Z229,Y82] 1[Z229,Y83] 1[Z229,Y84] 1[Z229,Y85] 1[Z229,Y86] 1[Z229,Y87] 1[Z229,Y88] 1[Z229,Y89] 1[Z229,Y90] 1[Z229,Y91] 1[Z229,Y92] 1[Z229,Y93] 1[Z229,Y94] 1[Z230,Y76] 1[Z230,Y77] 1[Z230,Y78] 1[Z230,Y79] 1[Z230,Y80] 1[Z230,Y81] 1[Z230,Y82] 1[Z230,Y83] 1[Z230,Y84] 1[Z230,Y85] 1[Z230,Y86] 1[Z230,Y87] 1[Z230,Y88] 1[Z230,Y89] 1[Z230,Y90] 1[Z230,Y91] 1[Z230,Y92] 1[Z230,Y93] 1[Z230,Y94] 1[Z231,Y76] 1[Z231,Y77] 1[Z231,Y78] 1[Z231,Y79] 1[Z231,Y80] 1[Z231,Y81] 1[Z231,Y82] 1[Z231,Y83] 1[Z231,Y84] 1[Z231,Y85] 1[Z231,Y86] 1[Z231,Y87] 1[Z231,Y88] 1[Z231,Y89] 1[Z231,Y90] 1[Z231,Y91] 1[Z231,Y92] 1[Z231,Y93] 1[Z231,Y94] 1[Z232,Y76] 1[Z232,Y77] 1[Z232,Y78] 1[Z232,Y79] 1[Z232,Y80] 1[Z232,Y81] 1[Z232,Y82] 1[Z232,Y83] 1[Z232,Y84] 1[Z232,Y85] 1[Z232,Y86] 1[Z232,Y87] 1[Z232,Y88] 1[Z232,Y89] 1[Z232,Y90] 1[Z232,Y91] 1[Z232,Y92] 1[Z232,Y93] 1[Z232,Y94] 1[Z233,Y76] 1[Z233,Y77] 1[Z233,Y78] 1[Z233,Y79] 1[Z233,Y80] 1[Z233,Y81] 1[Z233,Y82] 1[Z233,Y83] 1[Z233,Y84] 1[Z233,Y85] 1[Z233,Y86] 1[Z233,Y87] 1[Z233,Y88] 1[Z233,Y89] 1[Z233,Y90] 1[Z233,Y91] 1[Z233,Y92] 1[Z233,Y93] 1[Z233,Y94] 1[Z234,Y76] 1[Z234,Y77] 1[Z234,Y78] 1[Z234,Y79] 1[Z234,Y80] 1[Z234,Y81] 1[Z234,Y82] 1[Z234,Y83] 1[Z234,Y84] 1[Z234,Y85] 1[Z234,Y86] 1[Z234,Y87] 1[Z234,Y88] 1[Z234,Y89] 1[Z234,Y90] 1[Z234,Y91] 1[Z234,Y92] 1[Z234,Y93] 1[Z234,Y94] 1[Z235,Y76] 1[Z235,Y77] 1[Z235,Y78] 1[Z235,Y79] 1[Z235,Y80] 1[Z235,Y81] 1[Z235,Y82] 1[Z235,Y83] 1[Z235,Y84] 1[Z235,Y85] 1[Z235,Y86] 1[Z235,Y87] 1[Z235,Y88] 1[Z235,Y89] 1[Z235,Y90] 1[Z235,Y91] 1[Z235,Y92] 1[Z235,Y93] 1[Z235,Y94] 1[Z236,Y76] 1[Z236,Y77] 1[Z236,Y78] 1[Z236,Y79] 1[Z236,Y80] 1[Z236,Y81] 1[Z236,Y82] 1[Z236,Y83] 1[Z236,Y84] 1[Z236,Y85] 1[Z236,Y86] 1[Z236,Y87] 1[Z236,Y88] 1[Z236,Y89] 1[Z236,Y90] 1[Z236,Y91] 1[Z236,Y92] 1[Z236,Y93] 1[Z236,Y94] 1[Z237,Y76] 1[Z237,Y77] 1[Z237,Y78] 1[Z237,Y79] 1[Z237,Y80] 1[Z237,Y81] 1[Z237,Y82] 1[Z237,Y83] 1[Z237,Y84] 1[Z237,Y85] 1[Z237,Y86] 1[Z237,Y87] 1[Z237,Y88] 1[Z237,Y89] 1[Z237,Y90] 1[Z237,Y91] 1[Z237,Y92] 1[Z237,Y93] 1[Z237,Y94] 1[Z238,Y76] 1[Z238,Y77] 1[Z238,Y78] 1[Z238,Y79] 1[Z238,Y80] 1[Z238,Y81] 1[Z238,Y82] 1[Z238,Y83] 1[Z238,Y84] 1[Z238,Y85] 1[Z238,Y86] 1[Z238,Y87] 1[Z238,Y88] 1[Z238,Y89] 1[Z238,Y90] 1[Z238,Y91] 1[Z238,Y92] 1[Z238,Y93] 1[Z238,Y94] 1[Z239,Y76] 1[Z239,Y77] 1[Z239,Y78] 1[Z239,Y79] 1[Z239,Y80] 1[Z239,Y81] 1[Z239,Y82] 1[Z239,Y83] 1[Z239,Y84] 1[Z239,Y85] 1[Z239,Y86] 1[Z239,Y87] 1[Z239,Y88] 1[Z239,Y89] 1[Z239,Y90] 1[Z239,Y91] 1[Z239,Y92] 1[Z239,Y93] 1[Z239,Y94] 1[Z240,Y76] 1[Z240,Y77] 1[Z240,Y78] 1[Z240,Y79] 1[Z240,Y80] 1[Z240,Y81] 1[Z240,Y82] 1[Z240,Y83] 1[Z240,Y84] 1[Z240,Y85] 1[Z240,Y86] 1[Z240,Y87] 1[Z240,Y88] 1[Z240,Y89] 1[Z240,Y90] 1[Z240,Y91] 1[Z240,Y92] 1[Z240,Y93] 1[Z240,Y94] 1[Z241,Y76] 1[Z241,Y77] 1[Z241,Y78] 1[Z241,Y79] 1[Z241,Y80] 1[Z241,Y81] 1[Z241,Y82] 1[Z241,Y83] 1[Z241,Y84] 1[Z241,Y85] 1[Z241,Y86] 1[Z241,Y87] 1[Z241,Y88] 1[Z241,Y89] 1[Z241,Y90] 1[Z241,Y91] 1[Z241,Y92] 1[Z241,Y93] 1[Z241,Y94] 1[Z242,Y76] 1[Z242,Y77] 1[Z242,Y78] 1[Z242,Y79] 1[Z242,Y80] 1[Z242,Y81] 1[Z242,Y82] 1[Z242,Y83] 1[Z242,Y84] 1[Z242,Y85] 1[Z242,Y86] 1[Z242,Y87] 1[Z242,Y88] 1[Z242,Y89] 1[Z242,Y90] 1[Z242,Y91] 1[Z242,Y92] 1[Z242,Y93] 1[Z242,Y94] 1[Z243,Y76] 1[Z243,Y77] 1[Z243,Y78] 1[Z243,Y79] 1[Z243,Y80] 1[Z243,Y81] 1[Z243,Y82] 1[Z243,Y83] 1[Z243,Y84] 1[Z243,Y85] 1[Z243,Y86] 1[Z243,Y87] 1[Z243,Y88] 1[Z243,Y89] 1[Z243,Y90] 1[Z243,Y91] 1[Z243,Y92] 1[Z243,Y93] 1[Z243,Y94] 1[Z244,Y76] 1[Z244,Y77] 1[Z244,Y78] 1[Z244,Y79] 1[Z244,Y80] 1[Z244,Y81] 1[Z244,Y82] 1[Z244,Y83] 1[Z244,Y84] 1[Z244,Y85] 1[Z244,Y86] 1[Z244,Y87] 1[Z244,Y88] 1[Z244,Y89] 1[Z244,Y90] 1[Z244,Y91] 1[Z244,Y92] 1[Z244,Y93] 1[Z244,Y94] 1[Z245,Y76] 1[Z245,Y77] 1[Z245,Y78] 1[Z245,Y79] 1[Z245,Y80] 1[Z245,Y81] 1[Z245,Y82] 1[Z245,Y83] 1[Z245,Y84] 1[Z245,Y85] 1[Z245,Y86] 1[Z245,Y87] 1[Z245,Y88] 1[Z245,Y89] 1[Z245,Y90] 1[Z245,Y91] 1[Z245,Y92] 1[Z245,Y93] 1[Z245,Y94] 1[Z246,Y76] 1[Z246,Y77] 1[Z246,Y78] 1[Z246,Y79] 1[Z246,Y80] 1[Z246,Y81] 1[Z246,Y82] 1[Z246,Y83] 1[Z246,Y84] 1[Z246,Y85] 1[Z246,Y86] 1[Z246,Y87] 1[Z246,Y88] 1[Z246,Y89] 1[Z246,Y90] 1[Z246,Y91] 1[Z246,Y92] 1[Z246,Y93] 1[Z246,Y94] 1[Z247,Y76] 1[Z247,Y77] 1[Z247,Y78] 1[Z247,Y79] 1[Z247,Y80] 1[Z247,Y81] 1[Z247,Y82] 1[Z247,Y83] 1[Z247,Y84] 1[Z247,Y85] 1[Z247,Y86] 1[Z247,Y87] 1[Z247,Y88] 1[Z247,Y89] 1[Z247,Y90] 1[Z247,Y91] 1[Z247,Y92] 1[Z247,Y93] 1[Z247,Y94] 1[Z248,Y107] 1[Z249,Y96] 1[Z249,Y97] 1[Z249,Y107] 1[Z250,Y96] 1[Z250,Y97] 1[Z250,Y107] 1[Z251,Y98] 1[Z252,Y99] 1[Z252,Y100] 1[Z253,Y99] 1[Z253,Y100] 1[Z254,Y101] 1[Z254,Y102] 1[Z255,Y101] 1[Z255,Y102] 1[Z255,Y103] 1[Z255,Y106] 1[Z256,Y105] 1[Z257,Y95] 1[Z257,Y104] 1[Z258,Y95] 1[Z258,Y104] 1[Z259,Y95] 1[Z259,Y104] 1[Z260,Y95] 1[Z260,Y104] 1[Z261,Y98] 1[Z262,Y99] 1[Z262,Y100] 1[Z263,Y99] 1[Z263,Y100] 1[Z264,Y101] 1[Z264,Y102] 1[Z264,Y103] 1[Z264,Y106] 1[Z265,Y101] 1[Z265,Y102] 1[Z265,Y103] 1[Z265,Y106] 1[Z266,Y105] 1[Z267,Y95] 1[Z267,Y104] 1[Z268,Y95] 1[Z268,Y104] 1[Z269,Y95] 1[Z269,Y104] 1
;end;
